100
120
95
93
93
93
93
92
90
90
88
88
87
85
85
84
84
84
82
82
82
81
80
80
79
78
78
78
77
76
75
74
74
74
73
73
72
72
70
69
69
67
65
65
63
63
63
61
59
56
55
52
52
52
51
51
50
50
49
47
47
46
45
43
43
42
40
39
39
38
37
37
37
36
36
36
36
35
33
30
30
28
28
28
26
26
26
24
21
20
20
20
18
18
18
17
17
16
16
16
16
13
